networks/zoo_183_1675/zoo_183_1675-lower.txt
Number of groups: 67
Flow 51: {38 130 0} 
Flow 53: {40 132 0} 
Flow 73: {91 183 0} 
Flow 122: {4 3 0} {3 79 0} {79 47 0} {47 74 0} {74 73 0} {73 55 0} {55 58 0} {58 57 0} {57 60 0} {60 59 0} {59 151 0} 
Flow 180: {66 158 0} 
Flow 217: {16 26 0} {26 25 0} {25 117 0} 
Flow 221: {16 52 0} {52 144 0} 
Flow 300: {36 83 0} {83 37 0} {37 129 0} 
Flow 336: {23 115 0} 
Flow 364: {6 98 0} 
Flow 380: {28 120 0} 
Flow 382: {30 122 0} 
Flow 400: {54 146 0} 
Flow 402: {57 149 0} 
Flow 404: {60 152 0} 
Flow 417: {49 81 0} {81 82 0} {82 174 0} 
Flow 434: {25 26 0} {26 16 0} 
Flow 522: {72 164 0} 
Flow 528: {5 4 0} {4 96 0} 
Flow 529: {42 10 0} {10 9 0} {9 12 0} {12 8 0} {8 7 0} {7 6 0} {6 5 0} {5 97 0} 
Flow 536: {47 41 0} {41 80 0} {80 27 0} {27 119 0} 
Flow 538: {32 31 0} {31 19 0} {19 34 0} {34 126 0} 
Flow 578: {21 22 0} {22 47 0} {47 139 0} 
Flow 629: {7 99 0} 
Flow 630: {9 101 0} 
Flow 631: {10 102 0} 
Flow 637: {62 18 0} {18 110 0} 
Flow 638: {31 32 0} {32 20 0} {20 112 0} 
Flow 640: {22 114 0} 
Flow 682: {83 175 0} 
Flow 728: {59 62 0} {62 154 0} 
Flow 745: {48 28 0} {28 25 0} {25 29 0} {29 52 0} {52 30 0} {30 14 0} {14 78 0} {78 51 0} {51 46 0} {46 86 0} {86 85 0} {85 87 0} {87 64 0} {64 88 0} {88 180 0} 
Flow 773: {82 50 0} {50 43 0} {43 44 0} {44 75 0} {75 76 0} {76 168 0} 
Flow 796: {35 34 0} {34 19 0} {19 31 0} {31 123 0} 
Flow 805: {46 77 0} {77 45 0} {45 76 0} {76 75 0} {75 44 0} {44 43 0} {43 135 0} 
Flow 823: {77 169 0} 
Flow 827: {86 178 0} 
Flow 828: {87 179 0} 
Flow 831: {90 182 0} 
Flow 839: {52 16 0} {16 108 0} 
Flow 963: {70 67 0} {67 159 0} 
Flow 969: {73 165 0} 
Flow 1020: {88 89 0} {89 90 0} {90 91 0} {91 39 0} {39 40 0} {40 38 0} {38 92 0} {92 37 0} {37 56 0} {56 35 0} {35 127 0} 
Flow 1051: {68 67 0} {67 70 0} {70 69 0} {69 72 0} {72 71 0} {71 15 0} {15 107 0} 
Flow 1138: {27 48 0} {48 49 0} {49 141 0} 
Flow 1149: {67 68 0} {68 17 0} {17 65 0} {65 13 0} {13 66 0} {66 63 0} {63 11 0} {11 12 0} {12 9 0} {9 10 0} {10 42 0} {42 1 0} {1 33 0} {33 2 0} {2 34 0} {34 35 0} {35 56 0} {56 37 0} {37 92 0} {92 38 0} {38 40 0} {40 39 0} {39 91 0} {91 90 0} {90 89 0} {89 88 0} {88 64 0} {64 87 0} {87 85 0} {85 177 0} 
Flow 1182: {15 53 0} {53 54 0} {54 61 0} {61 18 0} {18 62 0} {62 59 0} {59 60 0} {60 57 0} {57 58 0} {58 55 0} {55 73 0} {73 74 0} {74 47 0} {47 22 0} {22 21 0} {21 24 0} {24 23 0} {23 84 0} {84 176 0} 
Flow 1264: {11 63 0} {63 66 0} {66 13 0} {13 105 0} 
Flow 1351: {81 49 0} {49 48 0} {48 27 0} {27 80 0} {80 41 0} {41 47 0} {47 79 0} {79 3 0} {3 4 0} {4 5 0} {5 6 0} {6 7 0} {7 8 0} {8 12 0} {12 11 0} {11 103 0} 
Flow 1373: {76 45 0} {45 77 0} {77 46 0} {46 138 0} 
Flow 1386: {69 70 0} {70 162 0} 
Flow 1391: {50 82 0} {82 81 0} {81 173 0} 
Flow 1418: {29 25 0} {25 28 0} {28 48 0} {48 140 0} 
Flow 1448: {84 36 0} {36 128 0} 
Flow 1460: {18 61 0} {61 54 0} {54 53 0} {53 145 0} 
Flow 1535: {53 15 0} {15 71 0} {71 72 0} {72 69 0} {69 161 0} 
Flow 1547: {14 30 0} {30 52 0} {52 29 0} {29 121 0} 
Flow 1607: {37 83 0} {83 36 0} {36 84 0} {84 23 0} {23 24 0} {24 21 0} {21 113 0} 
Flow 1632: {85 86 0} {86 46 0} {46 51 0} {51 78 0} {78 14 0} {14 106 0} 
Flow 1638: {24 116 0} 
Flow 1648: {39 131 0} 
Flow 1650: {34 2 0} {2 33 0} {33 1 0} {1 42 0} {42 134 0} 
Flow 1656: {43 50 0} {50 142 0} 
Flow 1659: {56 148 0} 
Flow 1663: {13 65 0} {65 17 0} {17 68 0} {68 160 0} 
Flow 1665: {71 163 0} 
Flow 1675: {89 181 0} 
Time taken running everything: 16 seconds
