networks/zoo_183_1675/zoo_183_1675-lower.sol
<?xml version = "1.0" encoding="UTF-8" standalone="yes"?>
<CPLEXSolution version="1.2">
 <header
   problemName="networks/zoo_183_1675/zoo_183_1675-lower.lp"
   solutionName="incumbent"
   solutionIndex="-1"
   objectiveValue="66"
   solutionTypeValue="3"
   solutionTypeString="primal"
   solutionStatusValue="101"
   solutionStatusString="integer optimal solution"
   solutionMethodString="mip"
   primalFeasible="1"
   dualFeasible="1"
   MIPNodes="0"
   MIPIterations="0"
   writeLevel="3"/>
 <quality
   epInt="1.0000000000000001e-05"
   epRHS="9.9999999999999995e-07"
   maxIntInfeas="0"
   maxPrimalInfeas="0"
   maxX="1"
   maxSlack="1"/>
 <variables>
  <variable name="Y(1,4)" index="3" value="1"/>
  <variable name="Y(2,5)" index="162" value="1"/>
  <variable name="Y(3,11)" index="326" value="1"/>
  <variable name="Y(4,14)" index="487" value="1"/>
  <variable name="Y(5,16)" index="647" value="1"/>
  <variable name="Y(6,21)" index="810" value="1"/>
  <variable name="Y(7,23)" index="970" value="1"/>
  <variable name="Y(8,25)" index="1130" value="1"/>
  <variable name="Y(9,27)" index="1290" value="1"/>
  <variable name="Y(10,29)" index="1450" value="1"/>
  <variable name="Y(11,34)" index="1613" value="1"/>
  <variable name="Y(12,36)" index="1773" value="1"/>
  <variable name="Y(13,37)" index="1932" value="1"/>
  <variable name="Y(14,39)" index="2092" value="1"/>
  <variable name="Y(15,40)" index="2251" value="1"/>
  <variable name="Y(16,42)" index="2411" value="1"/>
  <variable name="Y(17,46)" index="2573" value="1"/>
  <variable name="Y(18,47)" index="2732" value="1"/>
  <variable name="Y(19,48)" index="2891" value="1"/>
  <variable name="Y(20,49)" index="3050" value="1"/>
  <variable name="Y(21,50)" index="3209" value="1"/>
  <variable name="Y(22,52)" index="3369" value="1"/>
  <variable name="Y(23,56)" index="3531" value="1"/>
  <variable name="Y(24,59)" index="3692" value="1"/>
  <variable name="Y(25,66)" index="3857" value="1"/>
  <variable name="Y(26,69)" index="4018" value="1"/>
  <variable name="Y(27,72)" index="4179" value="1"/>
  <variable name="Y(28,76)" index="4341" value="1"/>
  <variable name="Y(29,84)" index="4507" value="1"/>
  <variable name="Y(30,85)" index="4666" value="1"/>
  <variable name="Y(31,88)" index="4827" value="1"/>
  <variable name="Y(32,89)" index="4986" value="1"/>
  <variable name="Y(36,13)" index="5542" value="1"/>
  <variable name="Y(40,22)" index="6183" value="1"/>
  <variable name="Y(42,24)" index="6501" value="1"/>
  <variable name="Y(46,31)" index="7140" value="1"/>
  <variable name="Y(48,35)" index="7460" value="1"/>
  <variable name="Y(51,38)" index="7937" value="1"/>
  <variable name="Y(65,71)" index="10182" value="1"/>
  <variable name="Y(70,86)" index="10987" value="1"/>
  <variable name="Y(73,91)" index="11466" value="1"/>
  <variable name="Y(95,15)" index="14866" value="1"/>
  <variable name="Y(113,43)" index="17738" value="1"/>
  <variable name="Y(120,53)" index="18854" value="1"/>
  <variable name="Y(124,67)" index="19500" value="1"/>
  <variable name="Y(125,68)" index="19659" value="1"/>
  <variable name="Y(127,70)" index="19977" value="1"/>
  <variable name="Y(130,73)" index="20454" value="1"/>
  <variable name="Y(132,77)" index="20774" value="1"/>
  <variable name="Y(133,81)" index="20936" value="1"/>
  <variable name="Y(137,87)" index="21574" value="1"/>
  <variable name="Y(140,90)" index="22051" value="1"/>
  <variable name="Y(364,6)" index="57359" value="1"/>
  <variable name="Y(365,7)" index="57518" value="1"/>
  <variable name="Y(366,9)" index="57678" value="1"/>
  <variable name="Y(367,10)" index="57837" value="1"/>
  <variable name="Y(373,18)" index="58793" value="1"/>
  <variable name="Y(374,20)" index="58953" value="1"/>
  <variable name="Y(380,28)" index="59909" value="1"/>
  <variable name="Y(382,30)" index="60227" value="1"/>
  <variable name="Y(400,54)" index="63095" value="1"/>
  <variable name="Y(402,57)" index="63414" value="1"/>
  <variable name="Y(404,60)" index="63733" value="1"/>
  <variable name="Y(405,62)" index="63893" value="1"/>
  <variable name="Y(417,82)" index="65809" value="1"/>
  <variable name="Y(418,83)" index="65968" value="1"/>
  <variable name="X(1,33,4)" index="264653" value="1"/>
  <variable name="X(1,42,1)" index="266325" value="1"/>
  <variable name="X(2,33,33)" index="268032" value="1"/>
  <variable name="X(2,34,4)" index="269678" value="1"/>
  <variable name="X(3,4,192)" index="271541" value="1"/>
  <variable name="X(3,79,5)" index="273029" value="1"/>
  <variable name="X(4,3,5)" index="274704" value="1"/>
  <variable name="X(4,5,258)" index="276632" value="1"/>
  <variable name="X(4,96,1)" index="278050" value="1"/>
  <variable name="X(5,4,1)" index="279725" value="1"/>
  <variable name="X(5,6,258)" index="281657" value="1"/>
  <variable name="X(5,97,2)" index="283076" value="1"/>
  <variable name="X(6,5,1)" index="284750" value="1"/>
  <variable name="X(6,7,74)" index="286498" value="1"/>
  <variable name="X(6,98,364)" index="288463" value="1"/>
  <variable name="X(7,6,1)" index="289775" value="1"/>
  <variable name="X(7,8,74)" index="291523" value="1"/>
  <variable name="X(7,99,365)" index="293489" value="1"/>
  <variable name="X(8,7,1)" index="294800" value="1"/>
  <variable name="X(8,12,74)" index="296548" value="1"/>
  <variable name="X(9,10,74)" index="298223" value="1"/>
  <variable name="X(9,12,1)" index="299825" value="1"/>
  <variable name="X(9,101,366)" index="301865" value="1"/>
  <variable name="X(10,9,1)" index="303175" value="1"/>
  <variable name="X(10,42,74)" index="304923" value="1"/>
  <variable name="X(10,102,367)" index="306891" value="1"/>
  <variable name="X(11,12,150)" index="308349" value="1"/>
  <variable name="X(11,63,25)" index="309899" value="1"/>
  <variable name="X(11,103,3)" index="311552" value="1"/>
  <variable name="X(12,8,1)" index="313225" value="1"/>
  <variable name="X(12,9,74)" index="314973" value="1"/>
  <variable name="X(12,11,3)" index="316577" value="1"/>
  <variable name="X(13,65,26)" index="318275" value="1"/>
  <variable name="X(13,66,150)" index="320074" value="1"/>
  <variable name="X(13,105,36)" index="321635" value="1"/>
  <variable name="X(14,30,191)" index="323465" value="1"/>
  <variable name="X(14,78,84)" index="325033" value="1"/>
  <variable name="X(14,106,4)" index="326628" value="1"/>
  <variable name="X(15,53,120)" index="328419" value="1"/>
  <variable name="X(15,71,193)" index="330167" value="1"/>
  <variable name="X(15,107,95)" index="331744" value="1"/>
  <variable name="X(16,26,217)" index="333541" value="1"/>
  <variable name="X(16,52,221)" index="335220" value="1"/>
  <variable name="X(16,108,5)" index="336679" value="1"/>
  <variable name="X(17,65,193)" index="338542" value="1"/>
  <variable name="X(17,68,26)" index="340050" value="1"/>
  <variable name="X(18,61,241)" index="341940" value="1"/>
  <variable name="X(18,62,179)" index="343553" value="1"/>
  <variable name="X(18,110,373)" index="345422" value="1"/>
  <variable name="X(19,31,46)" index="346770" value="1"/>
  <variable name="X(19,34,503)" index="348902" value="1"/>
  <variable name="X(20,112,374)" index="350448" value="1"/>
  <variable name="X(21,22,38)" index="351787" value="1"/>
  <variable name="X(21,24,75)" index="353499" value="1"/>
  <variable name="X(21,113,6)" index="355105" value="1"/>
  <variable name="X(22,21,75)" index="356849" value="1"/>
  <variable name="X(22,47,38)" index="358487" value="1"/>
  <variable name="X(22,114,40)" index="360164" value="1"/>
  <variable name="X(23,24,6)" index="361805" value="1"/>
  <variable name="X(23,84,75)" index="363549" value="1"/>
  <variable name="X(23,115,7)" index="365156" value="1"/>
  <variable name="X(24,21,6)" index="366830" value="1"/>
  <variable name="X(24,23,75)" index="368574" value="1"/>
  <variable name="X(24,116,42)" index="370216" value="1"/>
  <variable name="X(25,26,5)" index="371854" value="1"/>
  <variable name="X(25,28,191)" index="373715" value="1"/>
  <variable name="X(25,29,10)" index="375209" value="1"/>
  <variable name="X(25,117,8)" index="376882" value="1"/>
  <variable name="X(26,16,5)" index="378554" value="1"/>
  <variable name="X(26,25,217)" index="380441" value="1"/>
  <variable name="X(27,48,5)" index="381904" value="1"/>
  <variable name="X(27,80,191)" index="383765" value="1"/>
  <variable name="X(27,119,9)" index="385258" value="1"/>
  <variable name="X(28,25,5)" index="386929" value="1"/>
  <variable name="X(28,48,191)" index="388790" value="1"/>
  <variable name="X(28,120,380)" index="390654" value="1"/>
  <variable name="X(29,25,191)" index="392140" value="1"/>
  <variable name="X(29,52,22)" index="393646" value="1"/>
  <variable name="X(29,121,10)" index="395309" value="1"/>
  <variable name="X(30,14,84)" index="397058" value="1"/>
  <variable name="X(30,52,191)" index="398840" value="1"/>
  <variable name="X(30,122,382)" index="400706" value="1"/>
  <variable name="X(31,19,503)" index="402502" value="1"/>
  <variable name="X(31,32,374)" index="404048" value="1"/>
  <variable name="X(31,123,46)" index="405395" value="1"/>
  <variable name="X(32,20,374)" index="407398" value="1"/>
  <variable name="X(32,31,528)" index="409227" value="1"/>
  <variable name="X(33,1,33)" index="410407" value="1"/>
  <variable name="X(33,2,4)" index="412053" value="1"/>
  <variable name="X(34,2,345)" index="414069" value="1"/>
  <variable name="X(34,19,46)" index="415445" value="1"/>
  <variable name="X(34,35,4)" index="417078" value="1"/>
  <variable name="X(34,126,11)" index="418760" value="1"/>
  <variable name="X(35,34,218)" index="420642" value="1"/>
  <variable name="X(35,56,4)" index="422103" value="1"/>
  <variable name="X(35,127,48)" index="423822" value="1"/>
  <variable name="X(36,83,75)" index="425524" value="1"/>
  <variable name="X(36,84,6)" index="427130" value="1"/>
  <variable name="X(36,128,12)" index="428811" value="1"/>
  <variable name="X(37,56,210)" index="430684" value="1"/>
  <variable name="X(37,83,6)" index="432155" value="1"/>
  <variable name="X(37,92,4)" index="433828" value="1"/>
  <variable name="X(37,129,13)" index="435512" value="1"/>
  <variable name="X(38,40,4)" index="437178" value="1"/>
  <variable name="X(38,92,473)" index="439322" value="1"/>
  <variable name="X(38,130,51)" index="440575" value="1"/>
  <variable name="X(39,40,473)" index="442672" value="1"/>
  <variable name="X(39,91,4)" index="443878" value="1"/>
  <variable name="X(39,131,14)" index="445563" value="1"/>
  <variable name="X(40,38,473)" index="447697" value="1"/>
  <variable name="X(40,39,4)" index="448903" value="1"/>
  <variable name="X(40,132,15)" index="450589" value="1"/>
  <variable name="X(41,47,191)" index="452440" value="1"/>
  <variable name="X(41,80,5)" index="453929" value="1"/>
  <variable name="X(42,1,74)" index="455673" value="1"/>
  <variable name="X(42,10,1)" index="457275" value="1"/>
  <variable name="X(42,134,16)" index="458965" value="1"/>
  <variable name="X(43,44,87)" index="460711" value="1"/>
  <variable name="X(43,50,604)" index="462903" value="1"/>
  <variable name="X(43,135,113)" index="464087" value="1"/>
  <variable name="X(44,43,805)" index="466454" value="1"/>
  <variable name="X(44,75,87)" index="467411" value="1"/>
  <variable name="X(45,76,28)" index="469027" value="1"/>
  <variable name="X(45,77,610)" index="471284" value="1"/>
  <variable name="X(46,51,4)" index="472353" value="1"/>
  <variable name="X(46,77,28)" index="474052" value="1"/>
  <variable name="X(46,86,89)" index="475788" value="1"/>
  <variable name="X(46,138,17)" index="477391" value="1"/>
  <variable name="X(47,22,75)" index="479124" value="1"/>
  <variable name="X(47,41,5)" index="480729" value="1"/>
  <variable name="X(47,74,24)" index="482423" value="1"/>
  <variable name="X(47,79,192)" index="484266" value="1"/>
  <variable name="X(47,139,18)" index="485767" value="1"/>
  <variable name="X(48,27,191)" index="487615" value="1"/>
  <variable name="X(48,28,5)" index="489104" value="1"/>
  <variable name="X(48,49,20)" index="490794" value="1"/>
  <variable name="X(48,140,19)" index="492468" value="1"/>
  <variable name="X(49,48,604)" index="494728" value="1"/>
  <variable name="X(49,81,21)" index="495820" value="1"/>
  <variable name="X(49,141,20)" index="497494" value="1"/>
  <variable name="X(50,43,87)" index="499236" value="1"/>
  <variable name="X(50,82,604)" index="501428" value="1"/>
  <variable name="X(50,142,21)" index="502520" value="1"/>
  <variable name="X(51,46,84)" index="504258" value="1"/>
  <variable name="X(51,78,4)" index="505853" value="1"/>
  <variable name="X(52,16,465)" index="507989" value="1"/>
  <variable name="X(52,29,191)" index="509390" value="1"/>
  <variable name="X(52,30,84)" index="510958" value="1"/>
  <variable name="X(52,144,22)" index="512571" value="1"/>
  <variable name="X(53,15,241)" index="514465" value="1"/>
  <variable name="X(53,54,179)" index="516078" value="1"/>
  <variable name="X(53,145,120)" index="517694" value="1"/>
  <variable name="X(54,53,241)" index="519490" value="1"/>
  <variable name="X(54,61,179)" index="521103" value="1"/>
  <variable name="X(54,146,400)" index="522999" value="1"/>
  <variable name="X(55,58,24)" index="524298" value="1"/>
  <variable name="X(55,73,192)" index="526141" value="1"/>
  <variable name="X(56,35,218)" index="527842" value="1"/>
  <variable name="X(56,37,4)" index="529303" value="1"/>
  <variable name="X(56,148,23)" index="530997" value="1"/>
  <variable name="X(57,58,192)" index="532841" value="1"/>
  <variable name="X(57,60,24)" index="534348" value="1"/>
  <variable name="X(57,149,402)" index="536401" value="1"/>
  <variable name="X(58,55,192)" index="537866" value="1"/>
  <variable name="X(58,57,24)" index="539373" value="1"/>
  <variable name="X(59,60,192)" index="541216" value="1"/>
  <variable name="X(59,62,277)" index="542976" value="1"/>
  <variable name="X(59,151,24)" index="544398" value="1"/>
  <variable name="X(60,57,192)" index="546241" value="1"/>
  <variable name="X(60,59,24)" index="547748" value="1"/>
  <variable name="X(60,152,404)" index="549803" value="1"/>
  <variable name="X(61,18,179)" index="551253" value="1"/>
  <variable name="X(61,54,241)" index="552990" value="1"/>
  <variable name="X(62,18,277)" index="554701" value="1"/>
  <variable name="X(62,59,179)" index="556278" value="1"/>
  <variable name="X(62,154,405)" index="558179" value="1"/>
  <variable name="X(63,11,150)" index="559599" value="1"/>
  <variable name="X(63,66,25)" index="561149" value="1"/>
  <variable name="X(64,87,4)" index="562803" value="1"/>
  <variable name="X(64,88,389)" index="564863" value="1"/>
  <variable name="X(65,13,193)" index="566342" value="1"/>
  <variable name="X(65,17,26)" index="567850" value="1"/>
  <variable name="X(66,13,26)" index="569525" value="1"/>
  <variable name="X(66,63,150)" index="571324" value="1"/>
  <variable name="X(66,158,25)" index="572874" value="1"/>
  <variable name="X(67,68,193)" index="574717" value="1"/>
  <variable name="X(67,70,26)" index="576225" value="1"/>
  <variable name="X(67,159,124)" index="577998" value="1"/>
  <variable name="X(68,17,193)" index="579742" value="1"/>
  <variable name="X(68,67,26)" index="581250" value="1"/>
  <variable name="X(68,160,125)" index="583024" value="1"/>
  <variable name="X(69,70,193)" index="584767" value="1"/>
  <variable name="X(69,72,27)" index="586276" value="1"/>
  <variable name="X(69,161,26)" index="587950" value="1"/>
  <variable name="X(70,67,193)" index="589792" value="1"/>
  <variable name="X(70,69,26)" index="591300" value="1"/>
  <variable name="X(70,162,127)" index="593076" value="1"/>
  <variable name="X(71,15,95)" index="594719" value="1"/>
  <variable name="X(71,72,193)" index="596492" value="1"/>
  <variable name="X(71,163,65)" index="598039" value="1"/>
  <variable name="X(72,69,193)" index="599842" value="1"/>
  <variable name="X(72,71,65)" index="601389" value="1"/>
  <variable name="X(72,164,27)" index="603026" value="1"/>
  <variable name="X(73,55,24)" index="604698" value="1"/>
  <variable name="X(73,74,192)" index="606541" value="1"/>
  <variable name="X(73,165,130)" index="608154" value="1"/>
  <variable name="X(74,47,192)" index="609891" value="1"/>
  <variable name="X(74,73,24)" index="611398" value="1"/>
  <variable name="X(75,44,805)" index="613854" value="1"/>
  <variable name="X(75,76,87)" index="614811" value="1"/>
  <variable name="X(76,45,610)" index="617009" value="1"/>
  <variable name="X(76,75,805)" index="618879" value="1"/>
  <variable name="X(76,168,28)" index="619777" value="1"/>
  <variable name="X(77,45,28)" index="621452" value="1"/>
  <variable name="X(77,46,610)" index="623709" value="1"/>
  <variable name="X(77,169,132)" index="624906" value="1"/>
  <variable name="X(78,14,4)" index="626453" value="1"/>
  <variable name="X(78,51,84)" index="628208" value="1"/>
  <variable name="X(79,3,192)" index="629991" value="1"/>
  <variable name="X(79,47,5)" index="631479" value="1"/>
  <variable name="X(80,27,5)" index="633154" value="1"/>
  <variable name="X(80,41,191)" index="635015" value="1"/>
  <variable name="X(81,49,604)" index="637103" value="1"/>
  <variable name="X(81,82,21)" index="638195" value="1"/>
  <variable name="X(81,173,133)" index="639982" value="1"/>
  <variable name="X(82,50,21)" index="641545" value="1"/>
  <variable name="X(82,81,604)" index="643803" value="1"/>
  <variable name="X(82,174,417)" index="645291" value="1"/>
  <variable name="X(83,36,6)" index="646555" value="1"/>
  <variable name="X(83,37,75)" index="648299" value="1"/>
  <variable name="X(83,175,418)" index="650317" value="1"/>
  <variable name="X(84,23,6)" index="651580" value="1"/>
  <variable name="X(84,36,75)" index="653324" value="1"/>
  <variable name="X(84,176,29)" index="654953" value="1"/>
  <variable name="X(85,86,4)" index="656603" value="1"/>
  <variable name="X(85,87,389)" index="658663" value="1"/>
  <variable name="X(85,177,30)" index="659979" value="1"/>
  <variable name="X(86,46,4)" index="661628" value="1"/>
  <variable name="X(86,85,89)" index="663388" value="1"/>
  <variable name="X(86,178,70)" index="665044" value="1"/>
  <variable name="X(87,64,389)" index="667038" value="1"/>
  <variable name="X(87,85,4)" index="668328" value="1"/>
  <variable name="X(87,179,137)" index="670136" value="1"/>
  <variable name="X(88,64,4)" index="671678" value="1"/>
  <variable name="X(88,89,389)" index="673738" value="1"/>
  <variable name="X(88,180,31)" index="675055" value="1"/>
  <variable name="X(89,88,4)" index="676703" value="1"/>
  <variable name="X(89,90,389)" index="678763" value="1"/>
  <variable name="X(89,181,32)" index="680081" value="1"/>
  <variable name="X(90,89,4)" index="681728" value="1"/>
  <variable name="X(90,91,389)" index="683788" value="1"/>
  <variable name="X(90,182,140)" index="685214" value="1"/>
  <variable name="X(91,39,389)" index="687138" value="1"/>
  <variable name="X(91,90,4)" index="688428" value="1"/>
  <variable name="X(91,183,73)" index="690172" value="1"/>
  <variable name="X(92,37,473)" index="692247" value="1"/>
  <variable name="X(92,38,4)" index="693453" value="1"/>
 </variables>
</CPLEXSolution>
